language Essence 1.3

letting bot_end be
        [1334, 1279, 29, 1187, 15, 39, 1284, 67, 1322, 9, 1343, 115, 41, 1342, 1120, 0, 174, 1111; int(1..18)]
letting bot_start be
        [235, 193, 1061, 9, 1101, 1182, 252, 1213, 175, 1178, 322, 1330, 1053, 210, 10, 1196, 1340, 26; int(1..18)]
letting buffer_col be 2
letting buffer_row be 2
letting corridor_size be 3
letting n_shelves_col be 2
letting n_shelves_row be 23
letting shelf_col_size be 2
letting shelf_row_size be 1
